RAW/CMTX/fspd-mid/CMT13X.vrp_seed-8.out
1542.863201	132.323	148.014
