RAW/CMTX/fspd-mid/CMT13X.vrp_seed-8.sol
Route #1: 52 53 54 57 59 40 43 45 42 39
Route #2: 112 117 113 83 6 5 4 3 1 2 81 119
Route #3: 37 44 46 49 50 51 48 47 41 38
Route #4: 55 58 56 60 63 66 64 62 61 65
Route #5: 73 71 74 75 72 78 80 79 77 76 68
Route #6: 88 82 111 86 87 95 102 106 105 120
Route #7: 108 8 12 13 14 15 11 10 9 7 84 85
Route #8: 107 104 103 69 70 67 98 110 116 100 99 101
Route #9: 29 36 34 33 30 31 35 32 26 21
Route #10: 20 23 28 27 24 22 25 19 16 17
Route #11: 92 89 91 90 18 118 114 109 115 97 94 93 96
Cost 1542.863201